c 
c G(n,p) graph
c graph gen seed     : 3478
c number of vertices : 70
c max number of edges: 2415
c edge probability   : 0.400000
c data structure     : sparse
c
c           Graph Stats
c number of vertices  : 70
c nonisolated vertices: 70
c number of edges     : 956
c edge density        : 0.395859
c max degree          : 37
c avg degree          : 27.31
c min degree          : 18
p col 70 956
e 1 65
e 1 63
e 1 60
e 1 58
e 1 57
e 1 54
e 1 52
e 1 50
e 1 49
e 1 43
e 1 42
e 1 38
e 1 37
e 1 34
e 1 31
e 1 28
e 1 26
e 1 22
e 1 20
e 1 19
e 1 17
e 1 14
e 1 12
e 1 7
e 1 4
e 2 68
e 2 65
e 2 62
e 2 61
e 2 57
e 2 55
e 2 53
e 2 50
e 2 49
e 2 48
e 2 47
e 2 45
e 2 44
e 2 42
e 2 41
e 2 40
e 2 37
e 2 30
e 2 27
e 2 24
e 2 23
e 2 21
e 2 15
e 2 9
e 2 8
e 2 7
e 3 70
e 3 63
e 3 62
e 3 61
e 3 55
e 3 53
e 3 52
e 3 51
e 3 50
e 3 46
e 3 44
e 3 42
e 3 40
e 3 38
e 3 37
e 3 36
e 3 35
e 3 33
e 3 29
e 3 28
e 3 26
e 3 21
e 3 19
e 3 16
e 3 15
e 3 13
e 3 9
e 3 4
e 4 70
e 4 67
e 4 66
e 4 65
e 4 64
e 4 63
e 4 61
e 4 59
e 4 55
e 4 54
e 4 53
e 4 51
e 4 47
e 4 45
e 4 44
e 4 39
e 4 35
e 4 33
e 4 31
e 4 30
e 4 28
e 4 27
e 4 25
e 4 23
e 4 22
e 4 21
e 4 20
e 4 19
e 4 18
e 4 17
e 4 15
e 4 14
e 4 8
e 4 6
e 4 5
e 5 70
e 5 68
e 5 65
e 5 64
e 5 63
e 5 61
e 5 57
e 5 55
e 5 53
e 5 52
e 5 48
e 5 45
e 5 42
e 5 39
e 5 37
e 5 33
e 5 32
e 5 31
e 5 29
e 5 26
e 5 22
e 5 19
e 5 10
e 5 9
e 5 7
e 6 70
e 6 69
e 6 68
e 6 64
e 6 63
e 6 61
e 6 60
e 6 59
e 6 58
e 6 55
e 6 54
e 6 49
e 6 44
e 6 41
e 6 40
e 6 39
e 6 37
e 6 33
e 6 32
e 6 29
e 6 26
e 6 22
e 6 20
e 6 19
e 6 13
e 6 8
e 7 69
e 7 67
e 7 59
e 7 58
e 7 54
e 7 53
e 7 47
e 7 44
e 7 42
e 7 40
e 7 34
e 7 30
e 7 29
e 7 24
e 7 19
e 7 18
e 7 15
e 7 10
e 8 68
e 8 67
e 8 66
e 8 65
e 8 64
e 8 61
e 8 58
e 8 55
e 8 50
e 8 47
e 8 44
e 8 40
e 8 39
e 8 37
e 8 35
e 8 33
e 8 31
e 8 27
e 8 24
e 8 23
e 8 18
e 8 15
e 8 12
e 9 70
e 9 66
e 9 64
e 9 63
e 9 61
e 9 56
e 9 55
e 9 54
e 9 48
e 9 43
e 9 32
e 9 30
e 9 29
e 9 27
e 9 25
e 9 21
e 9 19
e 9 12
e 10 70
e 10 69
e 10 67
e 10 63
e 10 62
e 10 61
e 10 58
e 10 56
e 10 52
e 10 43
e 10 39
e 10 38
e 10 37
e 10 35
e 10 32
e 10 31
e 10 30
e 10 28
e 10 24
e 10 23
e 10 22
e 10 19
e 10 17
e 10 16
e 10 15
e 10 14
e 11 70
e 11 69
e 11 68
e 11 67
e 11 65
e 11 62
e 11 61
e 11 52
e 11 50
e 11 46
e 11 45
e 11 44
e 11 43
e 11 42
e 11 39
e 11 38
e 11 34
e 11 33
e 11 32
e 11 29
e 11 27
e 11 26
e 11 23
e 11 21
e 11 20
e 11 17
e 11 14
e 11 13
e 12 66
e 12 64
e 12 61
e 12 55
e 12 49
e 12 48
e 12 41
e 12 38
e 12 35
e 12 31
e 12 28
e 12 27
e 12 26
e 12 23
e 12 15
e 13 70
e 13 69
e 13 68
e 13 65
e 13 63
e 13 58
e 13 54
e 13 53
e 13 52
e 13 50
e 13 49
e 13 47
e 13 46
e 13 41
e 13 37
e 13 31
e 13 29
e 13 28
e 13 27
e 13 25
e 13 24
e 13 21
e 13 20
e 13 19
e 13 18
e 13 16
e 13 15
e 14 67
e 14 65
e 14 64
e 14 61
e 14 59
e 14 51
e 14 50
e 14 48
e 14 46
e 14 45
e 14 43
e 14 42
e 14 40
e 14 36
e 14 33
e 14 32
e 14 26
e 14 23
e 14 22
e 14 21
e 14 20
e 14 18
e 14 17
e 15 69
e 15 67
e 15 63
e 15 62
e 15 60
e 15 57
e 15 56
e 15 51
e 15 49
e 15 47
e 15 44
e 15 43
e 15 42
e 15 38
e 15 37
e 15 27
e 15 25
e 15 24
e 15 22
e 15 17
e 15 16
e 16 69
e 16 68
e 16 64
e 16 60
e 16 54
e 16 49
e 16 47
e 16 44
e 16 42
e 16 41
e 16 39
e 16 37
e 16 34
e 16 30
e 16 29
e 16 27
e 16 24
e 16 23
e 16 21
e 16 19
e 16 18
e 16 17
e 17 70
e 17 69
e 17 66
e 17 65
e 17 62
e 17 61
e 17 60
e 17 52
e 17 49
e 17 46
e 17 39
e 17 38
e 17 37
e 17 30
e 17 27
e 17 24
e 17 21
e 17 18
e 18 68
e 18 66
e 18 56
e 18 54
e 18 53
e 18 50
e 18 49
e 18 45
e 18 44
e 18 41
e 18 40
e 18 39
e 18 38
e 18 33
e 18 31
e 18 27
e 18 26
e 18 25
e 18 22
e 18 21
e 18 19
e 19 70
e 19 68
e 19 67
e 19 63
e 19 62
e 19 61
e 19 58
e 19 57
e 19 55
e 19 54
e 19 48
e 19 47
e 19 43
e 19 42
e 19 40
e 19 37
e 19 36
e 19 35
e 19 32
e 19 27
e 19 22
e 19 21
e 19 20
e 20 68
e 20 67
e 20 66
e 20 65
e 20 64
e 20 63
e 20 59
e 20 54
e 20 53
e 20 52
e 20 47
e 20 44
e 20 40
e 20 39
e 20 38
e 20 37
e 20 36
e 20 34
e 20 31
e 20 29
e 20 26
e 20 22
e 20 21
e 21 70
e 21 67
e 21 64
e 21 61
e 21 56
e 21 51
e 21 50
e 21 43
e 21 40
e 21 32
e 21 30
e 21 28
e 21 25
e 21 22
e 22 70
e 22 69
e 22 63
e 22 62
e 22 60
e 22 59
e 22 58
e 22 57
e 22 55
e 22 53
e 22 52
e 22 50
e 22 49
e 22 47
e 22 45
e 22 43
e 22 41
e 22 39
e 22 38
e 22 34
e 22 33
e 22 32
e 22 31
e 23 68
e 23 67
e 23 65
e 23 64
e 23 63
e 23 55
e 23 51
e 23 47
e 23 40
e 23 38
e 23 36
e 23 32
e 23 30
e 23 28
e 23 27
e 23 24
e 24 70
e 24 69
e 24 68
e 24 63
e 24 62
e 24 61
e 24 59
e 24 58
e 24 56
e 24 55
e 24 50
e 24 47
e 24 44
e 24 42
e 24 40
e 24 39
e 24 38
e 24 36
e 24 35
e 24 32
e 24 29
e 24 28
e 25 70
e 25 65
e 25 64
e 25 63
e 25 60
e 25 59
e 25 57
e 25 55
e 25 54
e 25 49
e 25 47
e 25 44
e 25 40
e 25 33
e 26 69
e 26 67
e 26 66
e 26 65
e 26 63
e 26 62
e 26 59
e 26 58
e 26 55
e 26 53
e 26 50
e 26 49
e 26 47
e 26 44
e 26 42
e 26 39
e 26 36
e 26 35
e 26 31
e 26 28
e 27 67
e 27 63
e 27 60
e 27 58
e 27 57
e 27 56
e 27 55
e 27 54
e 27 52
e 27 50
e 27 48
e 27 46
e 27 42
e 27 38
e 27 35
e 27 34
e 27 30
e 27 28
e 28 69
e 28 67
e 28 65
e 28 64
e 28 63
e 28 60
e 28 57
e 28 54
e 28 53
e 28 52
e 28 46
e 28 38
e 28 32
e 28 31
e 28 29
e 29 68
e 29 63
e 29 61
e 29 60
e 29 57
e 29 56
e 29 54
e 29 52
e 29 49
e 29 46
e 29 43
e 29 42
e 29 41
e 29 31
e 30 68
e 30 67
e 30 66
e 30 65
e 30 61
e 30 58
e 30 52
e 30 49
e 30 47
e 30 46
e 30 45
e 30 44
e 30 43
e 30 41
e 30 39
e 30 38
e 30 37
e 30 36
e 30 35
e 30 34
e 30 33
e 31 70
e 31 68
e 31 59
e 31 54
e 31 52
e 31 50
e 31 48
e 31 41
e 31 39
e 31 38
e 31 34
e 31 33
e 31 32
e 32 69
e 32 66
e 32 65
e 32 64
e 32 62
e 32 60
e 32 59
e 32 55
e 32 49
e 32 44
e 32 43
e 32 42
e 32 41
e 32 40
e 32 34
e 33 70
e 33 69
e 33 67
e 33 65
e 33 62
e 33 61
e 33 60
e 33 58
e 33 54
e 33 49
e 33 47
e 33 46
e 33 44
e 33 42
e 33 40
e 33 39
e 33 38
e 33 35
e 33 34
e 34 68
e 34 67
e 34 62
e 34 59
e 34 58
e 34 52
e 34 51
e 34 50
e 34 49
e 34 48
e 34 47
e 34 45
e 34 44
e 34 43
e 34 42
e 34 41
e 34 38
e 34 35
e 35 70
e 35 67
e 35 63
e 35 58
e 35 57
e 35 55
e 35 54
e 35 53
e 35 52
e 35 49
e 35 48
e 35 46
e 35 44
e 35 38
e 36 67
e 36 62
e 36 61
e 36 59
e 36 58
e 36 57
e 36 54
e 36 51
e 36 48
e 36 46
e 36 44
e 36 43
e 36 42
e 36 40
e 36 38
e 37 70
e 37 69
e 37 68
e 37 59
e 37 54
e 37 50
e 37 49
e 37 48
e 37 46
e 37 41
e 37 40
e 38 69
e 38 68
e 38 67
e 38 66
e 38 62
e 38 61
e 38 60
e 38 56
e 38 54
e 38 52
e 38 51
e 38 40
e 38 39
e 39 62
e 39 57
e 39 56
e 39 54
e 39 49
e 39 47
e 39 46
e 39 44
e 40 69
e 40 67
e 40 65
e 40 64
e 40 61
e 40 60
e 40 59
e 40 58
e 40 56
e 40 44
e 40 42
e 40 41
e 41 69
e 41 67
e 41 64
e 41 59
e 41 54
e 41 53
e 41 52
e 41 50
e 41 48
e 41 45
e 41 43
e 42 69
e 42 67
e 42 66
e 42 64
e 42 62
e 42 61
e 42 60
e 42 59
e 42 57
e 42 45
e 43 69
e 43 68
e 43 62
e 43 58
e 43 56
e 43 54
e 43 51
e 43 49
e 43 48
e 43 44
e 44 70
e 44 67
e 44 64
e 44 62
e 44 59
e 44 58
e 44 57
e 44 52
e 44 49
e 44 48
e 44 47
e 45 69
e 45 68
e 45 62
e 45 61
e 45 60
e 45 54
e 45 52
e 45 48
e 46 70
e 46 68
e 46 67
e 46 66
e 46 65
e 46 64
e 46 63
e 46 56
e 46 53
e 46 50
e 46 49
e 47 70
e 47 69
e 47 67
e 47 66
e 47 65
e 47 64
e 47 53
e 48 68
e 48 67
e 48 65
e 48 62
e 48 60
e 48 59
e 48 58
e 48 56
e 48 54
e 49 70
e 49 63
e 49 62
e 49 61
e 49 56
e 49 55
e 49 52
e 49 51
e 50 69
e 50 68
e 50 66
e 50 65
e 50 63
e 50 60
e 50 59
e 50 55
e 50 51
e 51 69
e 51 67
e 51 66
e 51 65
e 51 64
e 51 63
e 51 62
e 51 60
e 51 58
e 51 57
e 51 56
e 51 54
e 52 69
e 52 66
e 52 65
e 52 64
e 52 63
e 52 58
e 52 57
e 52 56
e 52 55
e 52 54
e 53 69
e 53 67
e 53 66
e 53 63
e 53 58
e 53 57
e 54 69
e 54 65
e 54 61
e 54 60
e 54 58
e 54 57
e 54 56
e 54 55
e 55 64
e 55 62
e 55 61
e 55 59
e 56 62
e 56 60
e 57 70
e 57 66
e 57 61
e 57 60
e 57 59
e 57 58
e 58 64
e 58 62
e 58 61
e 59 69
e 59 67
e 59 65
e 59 63
e 59 61
e 60 67
e 60 64
e 60 62
e 61 68
e 62 69
e 62 68
e 62 67
e 62 63
e 63 68
e 63 67
e 63 65
e 63 64
e 64 70
e 64 69
e 65 70
e 66 70
e 66 69
e 66 68
e 67 68
e 68 70
